problems/csplib-prob015/SchursLemma-models/noch/O2/lingeling/model_1_2-5-16-solution000001.eprime-solution
language ESSENCE' 1.0

letting boxes_PartitionAsSet_ExplicitR6_ExplicitVarSizeWithDummy be
        [[1, 5, 9, 12, 17, 17, 17, 17, 17, 17, 17, 17, 17, 17, 17, 17; int(1..16)],
         [2, 10, 14, 17, 17, 17, 17, 17, 17, 17, 17, 17, 17, 17, 17, 17; int(1..16)],
         [3, 13, 17, 17, 17, 17, 17, 17, 17, 17, 17, 17, 17, 17, 17, 17; int(1..16)],
         [4, 15, 17, 17, 17, 17, 17, 17, 17, 17, 17, 17, 17, 17, 17, 17; int(1..16)],
         [6, 7, 8, 11, 16, 17, 17, 17, 17, 17, 17, 17, 17, 17, 17, 17; int(1..16)]; int(1..5)]
