problems/csplib-prob015/SchursLemma-models/noch/O2/lingeling/model_1_2-5-16-solution000001.solution
language Essence 1.3

letting boxes be partition({1, 5, 9, 12}, {2, 10, 14}, {3, 13}, {4, 15}, {6, 7, 8, 11, 16})
